Traveling Salesman Problem/TSP_generados/Aleatorio1620390887_7.tsp
NAME: Aleatorio1620390887_7.tsp
COMMENT: Randomly generated scenario
TYPE: TSP
DIMENSION: 7
EDGE_WEIGHT_TYPE: ATT
NODE_COORD_SECTION
1 34.33 1.01
2 15.09 19.43
3 10.67 24.08
4 45.93 44.77
5 10.47 47.68
6 38.48 27.91
7 14.5 36.28
