Traveling Salesman Problem/TSP_generados/Aleatorio1620390887_7.opt.tour
NAME: Aleatorio1620390887_7.opt.tour
COMMENT: Optimal solution for Aleatorio1620390887_7 (139.15996805421577)
TYPE: TOUR
DIMENSION: 7
TOUR_SECTION
1 2 3 7 5 4 6
-1
EOF
